
Gurobi 6.5.2 (linux64) logging started Sun Sep 18 18:44:23 2016


Gurobi 6.5.2 (linux64) logging started Sun Sep 18 18:44:23 2016

Optimize a model with 201 rows, 1585 columns and 4241 nonzeros
Coefficient statistics:
  Matrix range    [1e+00, 2e+00]
  Objective range [1e+00, 1e+02]
  Bounds range    [1e+00, 1e+00]
  RHS range       [1e+00, 1e+00]
Found heuristic solution: objective 2524
Presolve removed 46 rows and 1 columns
Presolve time: 0.01s
Presolved: 155 rows, 1584 columns, 3714 nonzeros
Variable types: 0 continuous, 1584 integer (1584 binary)

Root relaxation: objective 1.241000e+03, 116 iterations, 0.00 seconds

    Nodes    |    Current Node    |     Objective Bounds      |     Work
 Expl Unexpl |  Obj  Depth IntInf | Incumbent    BestBd   Gap | It/Node Time

     0     0 1241.00000    0   30 2524.00000 1241.00000  50.8%     -    0s
     0     0 1283.00000    0   18 2524.00000 1283.00000  49.2%     -    0s
     0     0 1290.88462    0   44 2524.00000 1290.88462  48.9%     -    0s
     0     0 1291.50000    0   16 2524.00000 1291.50000  48.8%     -    0s
     0     0 1300.50000    0    6 2524.00000 1300.50000  48.5%     -    0s
     0     0 1300.50000    0    6 2524.00000 1300.50000  48.5%     -    0s
     0     0 1300.50000    0    6 2524.00000 1300.50000  48.5%     -    0s
     0     2 1300.50000    0    6 2524.00000 1300.50000  48.5%     -    0s
*  805   714             108    1625.0000000 1301.00000  19.9%   4.8    0s
* 2331  1368              92    1389.0000000 1303.27586  6.17%   5.1    2s
* 2608  1314              74    1378.0000000 1303.75000  5.39%   5.0    2s
* 4490  2213              56    1361.0000000 1304.50000  4.15%   4.5    3s
  8967  5523 1351.15000  152   19 1361.00000 1307.45833  3.93%   4.2    5s
*17049  9208              52    1348.0000000 1309.75000  2.84%   4.0    9s
 17246  9295     cutoff   64      1348.00000 1309.85714  2.83%   4.0   10s

Cutting planes:
  Gomory: 32
  Cover: 52
  Flow cover: 3
  Zero half: 5
  Lazy constraints: 930

Explored 17578 nodes (70334 simplex iterations) in 10.02 seconds
Thread count was 8 (of 8 available processors)

Time limit reached
Best objective 1.348000000000e+03, best bound 1.310000000000e+03, gap 2.8190%
